sat
(model
  (define-fun |rev$unknown:3|
    ( (v_0 Int) (v_1 Int) (v_2 Int) ) Bool
    (and (or (not (= v_1 0)) (>= (+ v_0 (* (- 1) v_2)) 0)) (or (and (= v_2 0) (= (+ v_1 (* (- 1) v_0)) 0)) (and (or (not (= v_2 0)) (not (= (+ v_1 (* (- 1) v_0)) 0))) (>= (* (- 1) v_1) 1)) (and (>= v_1 0) (or (not (= v_2 0)) (not (= (+ v_1 (* (- 1) v_0)) 0))) (>= v_0 1) (= (+ v_2 v_1 (* (- 1) v_0)) 0))))
  )
)
